43810
269,270,473,556,574,599,616,643,703,732,754,830,843,972,1048,1058,1133,1142,1143,1323,1342,1457,1482,1483,1507,1600,1621,1667,1743,1798,1820,1824,1975,1979,2034,2436,2438,2440,2478,2504,2510,2551,2629,2678,2705,2706,2744,2797,2869,2966,3151,3165,3216,3385,3397,3450,3458,3512,3562,3587,3624,3631,3675,3741,3809,4058,4131,4152,4233,4310,4335,4388,4536,4548,4585,4633,4648,4898,4951,4966
